(set-info :status unsat)
(declare-datatypes ((T 0)) ((
  (f0)
  (f1 (proj0f1 T) (proj1f1 T)))))
(assert (exists ((y14149 T) (y14148 T) (y14159 T) (y14154 T) (y14152 T) (y14153 T) (y14150 T) (y14151 T) (y14166 T) (y14165 T) (y14164 T) (y14163 T) (y14162 T) (y14161 T) (y14160 T) (y14169 T) (y14168 T)) (forall ((x14179 T) (x14178 T) (x14177 T) (x14176 T) (x14174 T) (x14173 T)) 
  (or (= y14148 (f1 (f1 y14148 x14177) x14177)) 
    (and (= y14149 (f1 y14150 (f1 (f1 (f1 x14177 x14177) (f1 x14177 x14177)) (f1 x14177 (f1 x14177 x14177))))) (= y14150 (f1 y14151 x14177)) (= y14151 (f1 y14152 (f1 (f1 x14177 x14177) (f1 x14177 x14177)))) (= y14152 (f1 y14153 x14177)) (= y14153 (f1 y14149 x14177))) 
    (and (= y14154 (f1 x14178 x14177)) (= x14178 (f1 x14176 (f1 (f1 x14177 x14177) x14177))) (= x14176 (f1 x14179 (f1 (f1 x14177 x14177) (f1 x14177 x14177)))) (= x14179 (f1 x14174 x14177)) (= x14174 (f1 y14154 x14177))) 
    (and (= y14159 (f1 y14160 (f1 x14177 x14177))) (= y14160 (f1 y14161 (f1 x14177 x14177))) (= y14161 (f1 y14159 x14177))) (= y14162 (f1 (f1 (f1 (f1 y14162 x14177) (f1 x14177 x14177)) (f1 x14177 x14177)) (f1 x14177 (f1 x14177 x14177)))) 
    (and (= y14163 (f1 y14164 (f1 x14177 x14177))) (= y14164 (f1 y14165 x14177)) (= y14165 (f1 y14166 (f1 x14177 x14177))) (= y14166 (f1 y14163 x14177))) (= x14173 (f1 x14173 x14177)) 
    (and (= y14168 (f1 (f1 (f1 y14169 (f1 x14177 x14177)) x14177) (f1 x14177 x14177))) (= y14169 (f1 y14168 x14177)))))))
(check-sat)
